10J3M/DAT/10J3MNLL-10.dat
10 3
17.3173 17.3173
23.1379 23.1379
26.2338 26.2338
31.734 31.734
26.1363 26.1363
24.4697 24.4697
22.1593 22.1593
20.2827 20.2827
29.7005 29.7005
25.261 25.261
82.1442