10J3M/SOL/10J3MNLL-10.sol
solution status: optimal solution found
objective value:                              84.3407
x#1#2                               0.236010092989607 	(obj:0)
x#1#3                               0.763989907010393 	(obj:0)
x#2#2                                               1 	(obj:0)
x#3#1                                               1 	(obj:0)
x#4#3                                0.99999701711579 	(obj:0)
x#5#1                                               1 	(obj:0)
x#6#1                                0.72010892595909 	(obj:0)
x#6#2                                0.27989107404091 	(obj:0)
x#7#1                                               1 	(obj:0)
x#8#2                                               1 	(obj:0)
x#9#2                                               1 	(obj:0)
x#10#3                                              1 	(obj:0)
z                                             84.3407 	(obj:1)
